c "685440.clq"
p edge 138 536
e 1 5
e 2 5
e 2 6
e 2 7
e 2 8
e 2 10
e 2 15
e 2 20
e 2 34
e 2 38
e 2 42
e 2 59
e 2 60
e 2 70
e 2 74
e 3 5
e 3 6
e 3 7
e 3 8
e 3 15
e 3 22
e 3 23
e 3 29
e 3 32
e 3 33
e 3 45
e 3 53
e 3 65
e 3 67
e 3 78
e 3 79
e 3 83
e 3 96
e 3 113
e 4 5
e 4 6
e 4 7
e 4 12
e 4 13
e 4 18
e 4 20
e 4 21
e 4 22
e 4 25
e 4 30
e 4 32
e 4 35
e 4 36
e 4 38
e 4 39
e 4 40
e 4 44
e 4 51
e 4 56
e 4 66
e 4 68
e 4 73
e 4 75
e 4 76
e 4 80
e 4 101
e 4 102
e 4 105
e 4 106
e 4 107
e 4 113
e 4 137
e 5 6
e 5 7
e 5 8
e 5 9
e 5 10
e 5 12
e 5 13
e 5 16
e 5 17
e 5 18
e 5 19
e 5 21
e 5 25
e 5 33
e 5 36
e 5 40
e 5 43
e 5 45
e 5 46
e 5 49
e 5 51
e 5 53
e 5 60
e 5 64
e 5 67
e 5 75
e 5 76
e 5 78
e 5 81
e 5 82
e 5 85
e 5 92
e 5 99
e 5 102
e 5 119
e 5 121
e 5 130
e 5 132
e 5 137
e 5 138
e 6 8
e 6 9
e 6 11
e 6 14
e 6 17
e 6 18
e 6 21
e 6 27
e 6 30
e 6 31
e 6 36
e 6 48
e 6 52
e 6 69
e 6 104
e 6 115
e 6 131
e 6 134
e 7 9
e 7 10
e 7 11
e 7 13
e 7 14
e 7 17
e 7 28
e 7 46
e 7 48
e 7 50
e 7 54
e 7 55
e 7 56
e 7 68
e 7 70
e 7 84
e 7 103
e 7 110
e 7 118
e 8 9
e 8 10
e 8 11
e 8 13
e 8 16
e 8 19
e 8 20
e 8 23
e 8 26
e 8 28
e 8 37
e 8 47
e 8 51
e 8 59
e 8 63
e 8 74
e 8 86
e 8 88
e 8 89
e 8 90
e 8 100
e 8 128
e 9 11
e 9 12
e 9 17
e 9 23
e 9 29
e 9 35
e 9 44
e 9 51
e 9 52
e 9 53
e 9 72
e 9 82
e 9 105
e 9 127
e 10 12
e 10 14
e 10 15
e 10 21
e 10 43
e 10 72
e 10 74
e 10 93
e 10 109
e 11 22
e 11 25
e 11 26
e 11 33
e 11 43
e 11 52
e 11 69
e 11 79
e 11 84
e 11 97
e 11 116
e 11 117
e 11 124
e 11 126
e 12 16
e 12 18
e 12 29
e 12 71
e 12 116
e 13 14
e 13 15
e 13 16
e 13 19
e 13 24
e 13 27
e 13 33
e 13 35
e 13 37
e 13 39
e 13 42
e 13 47
e 13 50
e 13 59
e 13 73
e 13 75
e 13 77
e 13 85
e 13 101
e 13 113
e 13 121
e 14 19
e 14 23
e 14 31
e 14 63
e 14 105
e 14 125
e 14 136
e 14 138
e 15 22
e 15 32
e 15 36
e 15 41
e 15 52
e 15 87
e 15 88
e 16 28
e 16 37
e 16 49
e 16 54
e 16 94
e 16 96
e 16 107
e 16 111
e 16 113
e 17 20
e 17 24
e 17 90
e 17 94
e 17 98
e 17 109
e 18 26
e 18 38
e 18 40
e 18 45
e 18 49
e 18 112
e 18 123
e 19 44
e 19 46
e 19 55
e 19 86
e 19 124
e 20 24
e 20 25
e 20 27
e 20 30
e 20 42
e 20 45
e 20 46
e 20 58
e 20 62
e 20 65
e 20 87
e 20 89
e 20 120
e 21 28
e 21 34
e 21 37
e 21 39
e 21 62
e 21 76
e 21 83
e 21 92
e 21 101
e 21 106
e 21 107
e 21 117
e 21 126
e 22 24
e 22 29
e 22 78
e 22 99
e 23 53
e 23 64
e 23 65
e 23 67
e 23 70
e 23 75
e 23 80
e 23 83
e 23 111
e 23 128
e 23 135
e 24 48
e 24 49
e 24 63
e 24 68
e 24 79
e 24 96
e 24 125
e 25 26
e 25 27
e 25 31
e 25 34
e 25 41
e 25 43
e 25 61
e 25 73
e 25 81
e 25 122
e 26 70
e 26 95
e 26 111
e 26 115
e 27 30
e 27 35
e 27 38
e 27 40
e 27 54
e 27 60
e 27 94
e 27 105
e 28 31
e 28 48
e 28 74
e 28 97
e 28 108
e 29 80
e 30 59
e 30 60
e 30 92
e 30 118
e 31 32
e 31 34
e 31 41
e 31 57
e 31 71
e 31 82
e 31 104
e 31 137
e 32 41
e 32 47
e 32 57
e 32 78
e 32 106
e 32 112
e 32 133
e 33 39
e 33 50
e 33 55
e 33 67
e 33 69
e 33 87
e 33 91
e 33 92
e 33 130
e 33 131
e 34 79
e 34 118
e 34 119
e 34 126
e 35 44
e 35 64
e 35 85
e 35 89
e 35 97
e 35 110
e 35 117
e 35 120
e 35 123
e 36 42
e 36 47
e 36 56
e 36 97
e 36 111
e 36 136
e 37 58
e 37 61
e 37 84
e 37 120
e 38 128
e 39 50
e 39 66
e 39 77
e 39 115
e 39 116
e 39 120
e 40 61
e 41 58
e 41 127
e 43 55
e 43 56
e 43 58
e 43 84
e 43 91
e 43 98
e 43 125
e 44 71
e 44 88
e 44 107
e 44 112
e 45 68
e 45 93
e 45 101
e 45 106
e 46 71
e 47 86
e 47 87
e 47 103
e 47 110
e 47 130
e 48 57
e 48 69
e 49 72
e 49 83
e 50 54
e 50 57
e 50 62
e 50 82
e 50 86
e 50 98
e 50 102
e 50 108
e 50 114
e 50 116
e 50 131
e 50 134
e 51 63
e 51 72
e 51 108
e 51 138
e 52 118
e 52 127
e 53 90
e 53 95
e 53 98
e 53 125
e 53 135
e 54 62
e 54 77
e 54 81
e 54 109
e 54 122
e 55 81
e 55 91
e 56 88
e 56 100
e 56 130
e 56 133
e 57 89
e 57 104
e 57 110
e 57 136
e 58 61
e 58 114
e 59 66
e 59 77
e 59 93
e 60 123
e 60 124
e 61 65
e 61 76
e 62 64
e 63 66
e 63 94
e 64 80
e 64 126
e 66 93
e 66 128
e 67 85
e 68 102
e 68 119
e 68 129
e 70 73
e 70 91
e 72 114
e 73 100
e 74 117
e 75 90
e 75 95
e 75 114
e 75 137
e 78 112
e 79 100
e 79 121
e 79 122
e 81 133
e 82 115
e 82 132
e 85 99
e 85 131
e 86 99
e 86 103
e 86 109
e 88 95
e 95 96
e 96 121
e 96 124
e 97 119
e 100 104
e 100 135
e 102 103
e 107 108
e 108 122
e 109 129
e 110 123
e 111 132
e 112 129
e 114 127
e 115 129
e 116 138
e 118 133
e 122 135
e 123 134
e 123 136
e 129 134
e 131 132
